42629
98,97,93,92,94,88,87,86,83,84,85,62,61,60,59,58,57,56,53,52,55,54,69,70,71,72,73,64,63,65,66,67,68,74,75,76,77,78,79,80,82,81,90,89,91,157,158,160,161,162,166,164,165,172,174,178,180,181,179,182,183,195,196,202,201,200,199,197,198,194,193,191,192,190,188,189,177,176,173,175,186,185,187,145,143,144,25,147,148,149,150,151,152,153,155,154,146,24,23,22,21,20,15,14,13,12,19,11,18,17,10,9,7,6,8,4,5,2,1,3,16,30,51,31,32,33,26,27,28,29,127,37,35,34,43,44,42,45,47,49,48,50,95,96,100,99,111,107,109,110,108,106,105,104,103,46,41,36,40,118,38,130,129,128,137,142,138,139,140,141,184,136,133,134,135,171,170,169,163,159,117,116,168,167,125,126,132,131,39,123,124,122,121,120,119,112,113,115,114,101,102,156,98
